CMD:
./solvers/bin/cadical --plain --no-reduce -t 1600 ./data/cnfs//oski15a08b05s/oski15a08b05s.37.cnf

c --- [ banner ] -------------------------------------------------------------
c 
c CaDiCaL SAT Solver
c Copyright (c) 2016-2024
c A. Biere, M. Fleury, N. Froleyks, K. Fazekas, F. Pollitt, T. Faller
c JKU Linz, University of Freiburg, TU Wien
c 
c Version 2.1.3 5296d3d2a9bf48c154ab2acb5e44625776d821bf
c g++ (Gentoo 12.3.1_p20230526 p2) 12.3.1 20230526 -Wall -Wextra -O3 -DNDEBUG
c Sat Aug 9 07:26:21 PDT 2025 Linux cedar2.int.cedar.computecanada.ca 5.14.0-362.24.2.el9_3.x86_64 x86_64
c 
c --- [ limit ] --------------------------------------------------------------
c 
c setting time limit to 1600 seconds real time (due to '-t 1600')
c 
c --- [ parsing input ] ------------------------------------------------------
c 
c reading DIMACS file from './data/cnfs//oski15a08b05s/oski15a08b05s.37.cnf'
c opening file to read './data/cnfs//oski15a08b05s/oski15a08b05s.37.cnf'
c found 'p cnf 31354134 92242129' header
c parsed 92242129 clauses in 17.80 seconds process time
c 
c --- [ options ] ------------------------------------------------------------
c 
c   --compact=false                (different from default 'true')
c   --decompose=false              (different from default 'true')
c   --deduplicate=false            (different from default 'true')
c   --elim=false                   (different from default 'true')
c   --probe=false                  (different from default 'true')
c   --reduce=false                 (different from default 'true')
c   --subsume=false                (different from default 'true')
c   --ternary=false                (different from default 'true')
c   --transred=false               (different from default 'true')
c   --vivify=false                 (different from default 'true')
c 
c --- [ solving ] ------------------------------------------------------------
c 
c time measured in process time since initialization
c 
c  seconds     reductions  redundant   irredundant
c           MB     restarts       trail          variables
c             level   conflicts       glue              remaining
c 
c * 17.80 13897  0 0   0    0    0  0% 0 88109494 26206729 84%
c { 19.60 13933  0 0   0    0    0  0% 0 88109494 26206729 84%
c i 42.89 13951 18239 0  25  258  251 41% 3 88109494 26206727 84%
c i 49.53 13952 16838 0  37  318  303 40% 3 88109494 26206721 84%
c i 53.01 13952 17738 0  42  371  352 41% 3 88109494 26206669 84%
c i 53.01 13952 17591 0  42  374  353 41% 3 88109494 26206665 84%
c i 63.44 13952 14301 0  70  501  471 37% 4 88109494 26206663 84%
c i 73.48 13952 13980 0  87  579  536 36% 4 88109494 26206651 84%
c i 73.48 13952 14050 0  87  582  537 37% 4 88109494 26206635 84%
c i 79.00 13952 14181 0  97  617  567 37% 4 88109494 26206531 84%
c } 92.71 13952 11265 0 131 1002  881 33% 4 88109494 26206491 84%
c [ 92.71 13952  0 0 131 1002  881  0% 0 88109494 26206491 84%
c O 93.83 13952 15568 0 131 1003  882 26% 2 88109494 26206491 84%
c ] 134.68 14036 18618 0 132 2059 1938 66% 2 88109494 26206491 84%
c 1 134.68 14036 18618 0 132 2059 1938 66% 2 88109494 26206491 84%
c 
c --- [ result ] -------------------------------------------------------------
c 
s SATISFIABLE
v 1 2 3 4 5 6 7 -8 9 10 11 12 13 14 15 -16 17 -18 19 20 21 22 23 24 25 26 27
v 28 29 30 31 32 33 34 35 36 37 38 39 40 41 42 43 44 45 46 47 48 49 50 51 52
v 53 54 55 56 57 58 59 60 61 62 63 64 65 -66 67 68 69 70 71 72 73 74 75 76 77
v 78 79 80 81 82 83 84 85 86 87 88 89 90 91 92 93 94 95 96 97 98 99 100 101
v 102 103 104 105 106 107 108 109 110 111 112 113 114 115 116 117 118 119 120
v 121 -122 123 124 125 126 127 128 129 130 131 -132 133 -134 -135 -136 -137
v -138 -139 -140 -141 -142 -143 -144 -145 -146 -147 -148 -149 -150 -151 -152
v -153 -154 -155 -156 -157 -158 -159 -160 -161 -162 -163 -164 -165 -166 -167
v -168 -169 -170 -171 -172 -173 174 175 176 177 178 179 180 181 182 183 184
v 185 186 187 188 189 190 191 192 193 194 195 196 197 198 -199 200 -201 -202
v -203 -204 -205 -206 -207 -208 -209 -210 -211 -212 -213 -214 -215 -216 -217
v -218 -219 -220 -221 -222 -223 -224 -225 -226 -227 -228 -229 -230 -231 -232
v -233 -234 -235 -236 -237 -238 -239 -240 241 242 243 244 245 246 247 248 249
v 250 251 252 253 254 255 256 257 258 259 260 261 262 263 264 265 -266 267 268
v 269 270 271 272 273 274 275 -276 277 278 279 280 281 282 283 284 285 -286
v 287 288 289 290 291 292 293 294 295 -296 297 298 299 300 301 302 303 304 305
v -306 307 308 309 310 311 312 313 314 315 -316 317 318 319 320 321 322 323
v 324 325 -326 327 328 329 330 331 332 333 334 335 -336 337 338 339 340 341
v 342 343 344 345 -346 347 348 349 350 351 352 353 354 355 -356 357 358 359
v 360 361 362 363 364 365 -366 367 368 369 370 371 372 373 374 375 -376 377
v 378 379 380 381 382 383 384 385 -386 387 388 389 390 391 392 393 394 395
v -396 397 398 399 400 401 402 403 404 -405 -406 407 408 409 410 411 412 413
v 414 -415 -416 417 418 419 420 421 422 423 424 -425 -426 427 428 429 430 431
v 432 433 434 -435 -436 437 438 439 440 441 442 443 444 -445 -446 447 448 449
v 450 -451 452 453 454 455 -456 457 458 459 460 -461 462 463 464 465 -466 467
v 468 469 470 -471 472 473 474 475 -476 477 478 479 480 -481 482 483 484 485
v -486 487 488 489 490 491 492 493 494 495 496 497 498 499 500 501 502 503 504
v 505 506 507 508 509 510 511 512 513 514 515 516 517 518 519 520 521 522 523
v 524 525 526 527 528 529 530 531 532 533 534 535 536 537 538 539 540 541 542
v 543 544 545 546 547 548 549 550 551 552 553 554 555 556 557 558 559 560 561
v 562 563 564 565 566 567 568 569 570 571 572 573 574 -575 576 -577 578 -579
v -580 -581 582 583 584 585 586 587 588 589 590 591 592 593 594 595 596 597
v 598 599 600 601 602 603 604 605 606 607 608 609 610 611 612 613 614 615 616
v 617 618 619 620 621 622 623 624 625 626 627 628 629 630 631 632 633 634 635
v 636 637 638 639 640 641 642 643 644 645 646 647 648 649 650 651 652 653 654
... skipped 3840542 lines ...
v -31353734 31353735 -31353736 31353737 31353738 -31353739 -31353740 -31353741
v -31353742 31353743 -31353744 -31353745 31353746 31353747 -31353748 -31353749
v 31353750 -31353751 -31353752 -31353753 31353754 -31353755 31353756 31353757
v -31353758 -31353759 -31353760 -31353761 31353762 -31353763 -31353764
v 31353765 31353766 -31353767 -31353768 31353769 -31353770 -31353771 -31353772
v 31353773 -31353774 31353775 31353776 -31353777 -31353778 -31353779 -31353780
v 31353781 -31353782 -31353783 31353784 31353785 -31353786 -31353787 31353788
v -31353789 -31353790 -31353791 31353792 -31353793 31353794 31353795 -31353796
v -31353797 -31353798 -31353799 31353800 -31353801 -31353802 31353803 31353804
v -31353805 -31353806 31353807 -31353808 -31353809 -31353810 31353811
v -31353812 31353813 31353814 -31353815 -31353816 -31353817 -31353818 31353819
v -31353820 -31353821 31353822 31353823 -31353824 -31353825 31353826 -31353827
v -31353828 -31353829 31353830 -31353831 31353832 31353833 -31353834 -31353835
v -31353836 -31353837 31353838 -31353839 -31353840 31353841 31353842 -31353843
v -31353844 31353845 -31353846 -31353847 -31353848 31353849 -31353850 31353851
v 31353852 -31353853 -31353854 -31353855 -31353856 31353857 -31353858
v -31353859 31353860 31353861 -31353862 -31353863 31353864 -31353865 -31353866
v -31353867 31353868 -31353869 31353870 31353871 -31353872 -31353873 -31353874
v -31353875 31353876 -31353877 -31353878 31353879 31353880 -31353881 -31353882
v 31353883 -31353884 -31353885 -31353886 31353887 -31353888 31353889 31353890
v -31353891 -31353892 -31353893 -31353894 31353895 -31353896 -31353897
v 31353898 31353899 -31353900 -31353901 31353902 -31353903 -31353904 -31353905
v 31353906 -31353907 31353908 31353909 -31353910 -31353911 -31353912 -31353913
v 31353914 -31353915 -31353916 31353917 31353918 -31353919 -31353920 31353921
v -31353922 -31353923 -31353924 31353925 -31353926 31353927 31353928 -31353929
v -31353930 -31353931 -31353932 31353933 -31353934 -31353935 31353936 31353937
v -31353938 -31353939 31353940 -31353941 -31353942 -31353943 31353944
v -31353945 31353946 31353947 -31353948 -31353949 -31353950 -31353951 31353952
v -31353953 -31353954 31353955 31353956 -31353957 -31353958 31353959 -31353960
v -31353961 -31353962 31353963 -31353964 31353965 31353966 -31353967 -31353968
v -31353969 -31353970 31353971 -31353972 -31353973 31353974 31353975 -31353976
v -31353977 31353978 -31353979 -31353980 -31353981 31353982 -31353983 31353984
v 31353985 -31353986 -31353987 -31353988 -31353989 31353990 -31353991
v -31353992 31353993 31353994 -31353995 -31353996 31353997 -31353998 -31353999
v -31354000 31354001 -31354002 31354003 31354004 -31354005 -31354006 -31354007
v -31354008 31354009 -31354010 -31354011 31354012 31354013 -31354014 -31354015
v 31354016 -31354017 -31354018 -31354019 31354020 -31354021 31354022 31354023
v -31354024 -31354025 -31354026 -31354027 31354028 -31354029 -31354030
v 31354031 31354032 -31354033 -31354034 31354035 -31354036 -31354037 -31354038
v 31354039 -31354040 31354041 31354042 -31354043 -31354044 -31354045 -31354046
v 31354047 -31354048 -31354049 31354050 31354051 -31354052 -31354053 31354054
v -31354055 -31354056 -31354057 31354058 -31354059 31354060 31354061 -31354062
v -31354063 -31354064 -31354065 31354066 -31354067 -31354068 31354069 31354070
v -31354071 -31354072 31354073 -31354074 -31354075 -31354076 31354077
v -31354078 31354079 31354080 -31354081 -31354082 -31354083 -31354084 31354085
v -31354086 -31354087 31354088 31354089 -31354090 -31354091 31354092 -31354093
v -31354094 -31354095 31354096 -31354097 31354098 31354099 -31354100 -31354101
v -31354102 -31354103 31354104 -31354105 -31354106 31354107 31354108 -31354109
v -31354110 31354111 -31354112 -31354113 -31354114 31354115 -31354116
v -31354117 31354118 -31354119 -31354120 -31354121 -31354122 31354123
v -31354124 31354125 -31354126 -31354127 31354128 -31354129 -31354130
v -31354131 31354132 31354133 -31354134 0
c 
c --- [ run-time profiling ] -------------------------------------------------
c 
c process time taken by individual solving procedures
c (percentage relative to process time for solving)
c 
c       116.88  100.00% search
c        73.11   62.55% unstable
c        41.97   35.91% stable
c        17.80   15.23% parse
c         1.80    1.54% lucky
c         0.00    0.00% simplify
c   =================================
c       116.88   85.79% solve
c 
c last line shows process time for solving
c (percentage relative to total process time)
c 
c --- [ statistics ] ---------------------------------------------------------
c 
c chronological:              1569        76.20 %  of conflicts
c conflicts:                  2059        17.62    per second
c decisions:               1501398     12845.59    per second
c fixed:                   5147643        16.42 %  of all variables
c learned:                    1964        95.39 %  per conflict
c learned_lits:              12507       100.00 %  learned literals
c minimized:                     0         0.00 %  learned literals
c shrunken:                   2216        17.72 %  learned literals
c minishrunken:                 74         0.59 %  learned literals
c otfs:                          6         0.29 %  of conflict
c propagations:          731262994         6.26 M  per second
c rephased:                      1      2059.00    interval
c restarts:                    132        15.60    interval
c stabilizing:                   1        51.34 %  of conflicts
c subsumed:                     17         0.00 %  of all clauses
c strengthened:                  6         0.00 %  of all clauses
c 
c seconds are measured in process time for solving
c 
c --- [ resources ] ----------------------------------------------------------
c 
c total process time since initialization:       136.24    seconds
c total real time since initialization:          137.49    seconds
c maximum resident set size of process:        14042.12    MB
c 
c --- [ shutting down ] ------------------------------------------------------
c 
c exit 10
